Route #1: 37 50 36 2 42 23 19 15 32 16 7 
Route #2: 28 49 29 38 18 35 46 
Route #3: 3 5 21 13 14 25 39 
Route #4: 12 43 48 45 47 1 
Route #5: 4 22 30 26 10 40 44 8 51 
Route #6: 9 17 11 52 34 41 24 
Route #7: 33 6 20 31 27 
cost 1225.5
execution_time 27.919
